
;this file is automatically generated: Tue May 28 17:08:35 CST 2019

;declarations generated

(declare-fun oclExcludes ( Int Int) Bool )
(declare-fun type_8b09ae90_65ca_46bd_9601_cf8acbc24d11_C ( Int) Bool )
(declare-fun type_11596c63_1c97_4c0c_9962_f2e554cdb448_A ( Int) Bool )
(declare-fun oclSelect ( Int Bool) Int )
(declare-fun Cardinality ( Int) Int )
(declare-fun type_a831f02d_4467_416d_9017_4635da980929_B ( Int) Bool )
(declare-fun type_8f8edd4b_5fb3_4ae5_8506_d1c838b138ff_D ( Int) Bool )
(declare-fun container_ ( Int) Int )
(declare-fun oclIncludes ( Int Int) Bool )
(declare-fun obj_ebcb83c5_87e5_473a_94b5_f623a33c61eb ( Int) Int )
(declare-fun aux1 () Int )
(declare-fun aux0 () Int )
(declare-fun aux3 () Int )
(declare-fun aux2 () Int )
(declare-fun aux4 () Int )
(declare-fun weight4 () Int )
(declare-fun weight3 () Int )
(declare-fun ObjAt ( Int Int) Int )
(declare-fun weight2 () Int )
(declare-fun weight1 () Int )
(declare-fun weight0 () Int )

;formula(s) generated
(assert (and (>= aux0 0) (<= aux0 1)))
(assert (or (or (forall ((b Int)) (=> (and ( type_a831f02d_4467_416d_9017_4635da980929_B b )  ( type_11596c63_1c97_4c0c_9962_f2e554cdb448_A b ) ) (forall ((c Int)) (=> (and ( type_8b09ae90_65ca_46bd_9601_cf8acbc24d11_C c )  ( type_11596c63_1c97_4c0c_9962_f2e554cdb448_A c ) ) (not (= ( obj_ebcb83c5_87e5_473a_94b5_f623a33c61eb b )  ( obj_ebcb83c5_87e5_473a_94b5_f623a33c61eb c ) ) ))))) (and (= aux0 1) true)) (and (= aux0 0) false)))
(assert (and (=> (= aux0 0) (= weight0 8)) (=> (= aux0 1) (= weight0 0))))
(assert (and (>= aux1 0) (<= aux1 1)))
(assert (and (>= aux2 0) (<= aux2 1)))
(assert (and (>= aux3 0) (<= aux3 1)))
(assert (and (>= aux4 0) (<= aux4 1)))
(assert (or (or (exists ((p Int)) ( type_11596c63_1c97_4c0c_9962_f2e554cdb448_A ( obj_ebcb83c5_87e5_473a_94b5_f623a33c61eb p )  ) ) (and (= aux1 1) true)) (and (= aux1 0) false)))
(assert (and (=> (= aux1 0) (= weight1 2)) (=> (= aux1 1) (= weight1 0))))
(assert (or (or (exists ((p Int)) (and ( type_a831f02d_4467_416d_9017_4635da980929_B ( obj_ebcb83c5_87e5_473a_94b5_f623a33c61eb p )  )  ( type_11596c63_1c97_4c0c_9962_f2e554cdb448_A ( obj_ebcb83c5_87e5_473a_94b5_f623a33c61eb p )  ) )) (and (= aux2 1) true)) (and (= aux2 0) false)))
(assert (and (=> (= aux2 0) (= weight2 2)) (=> (= aux2 1) (= weight2 0))))
(assert (or (or (exists ((p Int)) (and ( type_8b09ae90_65ca_46bd_9601_cf8acbc24d11_C ( obj_ebcb83c5_87e5_473a_94b5_f623a33c61eb p )  )  ( type_11596c63_1c97_4c0c_9962_f2e554cdb448_A ( obj_ebcb83c5_87e5_473a_94b5_f623a33c61eb p )  ) )) (and (= aux3 1) true)) (and (= aux3 0) false)))
(assert (and (=> (= aux3 0) (= weight3 2)) (=> (= aux3 1) (= weight3 0))))
(assert (or (or (exists ((p Int)) (and (and (and ( type_8f8edd4b_5fb3_4ae5_8506_d1c838b138ff_D ( obj_ebcb83c5_87e5_473a_94b5_f623a33c61eb p )  )  ( type_11596c63_1c97_4c0c_9962_f2e554cdb448_A ( obj_ebcb83c5_87e5_473a_94b5_f623a33c61eb p )  ) ) ( type_a831f02d_4467_416d_9017_4635da980929_B ( obj_ebcb83c5_87e5_473a_94b5_f623a33c61eb p )  ) ) ( type_8b09ae90_65ca_46bd_9601_cf8acbc24d11_C ( obj_ebcb83c5_87e5_473a_94b5_f623a33c61eb p )  ) )) (and (= aux4 1) true)) (and (= aux4 0) false)))
(assert (and (=> (= aux4 0) (= weight4 2)) (=> (= aux4 1) (= weight4 0))))
(assert (= (+ (+ (+ (+ weight0 weight1) weight2) weight3) weight4) 14))
(assert (not (and (and (and (and (= weight0 8) (= weight1 2)) (= weight2 2)) (= weight3 2)) (= weight4 0)) ))
